# Solution for model GasLib-40
# Objective value = 1.3923032034209001e+01
loadshed[innode_1] 0
loadshed[innode_2] 0
loadshed[innode_3] 0
loadshed[innode_4] 0
loadshed[innode_5] 0
loadshed[innode_6] 0
loadshed[innode_7] 0
loadshed[innode_8] 0
loadshed[source_1] -2.7754087616891132e-01
loadshed[source_2] 1.0557689012470695e-01
loadshed[source_3] 2.6003412058957043e-01
loadshed[sink_1] 0
loadshed[sink_2] 0
loadshed[sink_3] 0
loadshed[sink_4] 0
loadshed[sink_5] 0
loadshed[sink_6] 0
loadshed[sink_7] 0
loadshed[sink_8] 0
loadshed[sink_9] 0
loadshed[sink_10] 0
loadshed[sink_11] 0
loadshed[sink_12] 8.5134463393889426e-01
loadshed[sink_13] 0
loadshed[sink_14] 0
loadshed[sink_15] 0
loadshed[sink_16] 0
loadshed[sink_17] 0
loadshed[sink_18] 0
loadshed[sink_19] 0
loadshed[sink_20] 0
loadshed[sink_21] 0
loadshed[sink_22] 0
loadshed[sink_23] 0
loadshed[sink_24] 0
loadshed[sink_25] 0
loadshed[sink_26] 0
loadshed[sink_27] 0
loadshed[sink_28] 0
loadshed[sink_29] 0
flow[source_1,sink_3] 2.0196679198600879e+02
flow[innode_1,sink_16] 1.6354166666666970e+01
flow[innode_6,sink_13] -2.5022447554049450e+00
flow[sink_13,sink_14] -1.8856411422071613e+01
flow[sink_14,sink_10] -3.5210578088738316e+01
flow[sink_25,sink_26] 2.3138946796579137e+02
flow[sink_26,sink_9] 1.3029314373701331e+02
flow[sink_9,sink_18] 1.1393897707034664e+02
flow[sink_26,sink_4] 84.7421575621114
flow[sink_4,sink_20] 2.2773478982244853e+01
flow[sink_18,sink_6] 9.7584810403679967e+01
flow[sink_25,innode_8] -1.6925845865267240e+02
flow[sink_6,sink_7] 4.8522310403679512e+01
flow[sink_6,sink_22] 3.2708333333333641e+01
flow[sink_7,sink_24] 3.5139467965791006e+01
flow[sink_22,sink_1] 1.6354166666666970e+01
flow[sink_24,sink_21] 1.8785301299124335e+01
flow[sink_21,sink_12] 2.4311346324576673e+00
flow[sink_7,sink_5] -2.9713242287781441e+00
flow[sink_5,sink_17] -1.9325490895444773e+01
flow[sink_17,sink_4] -4.5614511913199863e+01
flow[sink_17,sink_8] 9.9348543510884610e+00
flow[sink_3,sink_23] 16.3541666666697
flow[sink_8,sink_20] -6.4193123155781677e+00
flow[sink_25,sink_20] 0
flow[sink_25,sink_15] -7.5982931224381062e+01
flow[sink_15,sink_29] 0
flow[sink_29,sink_28] 1.6354166666667879e+01
flow[sink_29,sink_2] 1.0869126455771440e+02
flow[sink_2,sink_15] 9.2337097891047733e+01
flow[sink_29,innode_7] -1.4139959789104893e+02
flow[innode_4,sink_19] 0
flow[sink_19,innode_3] 4.1124906390835235e+01
flow[innode_4,innode_5] 1.1698141142207243e+02
flow[sink_27,innode_5] -1.1698141142207243e+02
flow[sink_27,sink_19] 1.0062724475540575e+02
flow[sink_10,sink_11] 3.2708333333333641e+01
flow[sink_10,innode_2] -4.3148171697903422e+01
flow[sink_10,innode_3] -4.1124906390835235e+01
flow[innode_6,sink_25] 2.5022447554049450e+00
flow[sink_11,innode_1] 1.6354166666666970e+01
flow[sink_19,innode_2] 4.3148171697903422e+01
flow[source_3,innode_4] 1.1698141142207243e+02
flow[source_2,innode_7] 1.4139959789104893e+02
flow[sink_3,innode_8] 1.6925845865267240e+02
pressure[innode_1] 7.5369289969037524e+01
pressure[innode_2] 7.7801550358660890e+01
pressure[innode_3] 7.7710483910348856e+01
pressure[innode_4] 81.01325
pressure[innode_5] 8.0932784016774974e+01
pressure[innode_6] 7.3808040762212613e+01
pressure[innode_7] 81.01325
pressure[innode_8] 8.0338152168501836e+01
pressure[source_1] 81.01325
pressure[source_2] 81.01325
pressure[source_3] 81.01325
pressure[sink_1] 4.0883501107583449e+01
pressure[sink_2] 7.4478092291923787e+01
pressure[sink_3] 8.0338152168501836e+01
pressure[sink_4] 4.6737079185939187e+01
pressure[sink_5] 4.3554233566770094e+01
pressure[sink_6] 4.2984578717970820e+01
pressure[sink_7] 4.2318483055811058e+01
pressure[sink_8] 4.4618975085036872e+01
pressure[sink_9] 49.7130354908734
pressure[sink_10] 7.5520991276641070e+01
pressure[sink_11] 7.5369289969037524e+01
pressure[sink_12] 1.01325
pressure[sink_13] 7.3821835219385221e+01
pressure[sink_14] 73.8555803738361
pressure[sink_15] 74.1766320180781
pressure[sink_16] 7.4347640134219844e+01
pressure[sink_17] 4.4993842949820369e+01
pressure[sink_18] 4.5590383703912522e+01
pressure[sink_19] 7.7801550358660890e+01
pressure[sink_20] 4.5066310876903678e+01
pressure[sink_21] 1.8783807587451564e+00
pressure[sink_22] 4.1947270249938455e+01
pressure[sink_23] 8.0173434156842049e+01
pressure[sink_24] 2.0864105170064913e+00
pressure[sink_25] 7.3808040762212613e+01
pressure[sink_26] 5.7511416420880721e+01
pressure[sink_27] 7.9962054460377857e+01
pressure[sink_28] 76.9360824150856
pressure[sink_29] 7.7231364688702769e+01
interdiction[source_1,sink_3] 0
interdiction[innode_1,sink_16] 0
interdiction[innode_6,sink_13] 0
interdiction[sink_13,sink_14] 0
interdiction[sink_14,sink_10] 0
interdiction[sink_25,sink_26] 0
interdiction[sink_26,sink_9] 0
interdiction[sink_9,sink_18] 0
interdiction[sink_26,sink_4] 0
interdiction[sink_4,sink_20] 0
interdiction[sink_18,sink_6] 0
interdiction[sink_25,innode_8] 0
interdiction[sink_6,sink_7] 0
interdiction[sink_6,sink_22] 0
interdiction[sink_7,sink_24] 0
interdiction[sink_22,sink_1] 0
interdiction[sink_24,sink_21] 0
interdiction[sink_21,sink_12] 0
interdiction[sink_7,sink_5] 0
interdiction[sink_5,sink_17] 0
interdiction[sink_17,sink_4] 0
interdiction[sink_17,sink_8] 0
interdiction[sink_3,sink_23] 0
interdiction[sink_8,sink_20] 0
interdiction[sink_25,sink_20] 1
interdiction[sink_25,sink_15] 0
interdiction[sink_15,sink_29] 1
interdiction[sink_29,sink_28] 0
interdiction[sink_29,sink_2] 0
interdiction[sink_2,sink_15] 0
interdiction[sink_29,innode_7] 0
interdiction[innode_4,sink_19] 1
interdiction[sink_19,innode_3] 0
interdiction[innode_4,innode_5] 0
interdiction[sink_27,innode_5] 0
interdiction[sink_27,sink_19] 0
interdiction[sink_10,sink_11] 0
interdiction[sink_10,innode_2] 0
interdiction[sink_10,innode_3] 0
interdiction[innode_6,sink_25] 0
interdiction[sink_11,innode_1] 0
interdiction[sink_19,innode_2] 0
interdiction[source_3,innode_4] 0
interdiction[source_2,innode_7] 0
interdiction[sink_3,innode_8] 0
WCcheckFlow[source_1,sink_3] 39
WCcheckFlow[innode_1,sink_16] 1
WCcheckFlow[innode_6,sink_13] 13
WCcheckFlow[sink_13,sink_14] 12
WCcheckFlow[sink_14,sink_10] 11
WCcheckFlow[sink_25,sink_26] 15
WCcheckFlow[sink_26,sink_9] 12
WCcheckFlow[sink_9,sink_18] 11
WCcheckFlow[sink_26,sink_4] 2
WCcheckFlow[sink_4,sink_20] 1
WCcheckFlow[sink_18,sink_6] 10
WCcheckFlow[sink_25,innode_8] -36
WCcheckFlow[sink_6,sink_7] 7
WCcheckFlow[sink_6,sink_22] 2
WCcheckFlow[sink_7,sink_24] 3
WCcheckFlow[sink_22,sink_1] 1
WCcheckFlow[sink_24,sink_21] 2
WCcheckFlow[sink_21,sink_12] 1
WCcheckFlow[sink_7,sink_5] 3
WCcheckFlow[sink_5,sink_17] 2
WCcheckFlow[sink_17,sink_4] 0
WCcheckFlow[sink_17,sink_8] 1
WCcheckFlow[sink_3,sink_23] 1
WCcheckFlow[sink_8,sink_20] 0
WCcheckFlow[sink_25,sink_20] 0
WCcheckFlow[sink_25,sink_15] 6
WCcheckFlow[sink_15,sink_29] 0
WCcheckFlow[sink_29,sink_28] 1
WCcheckFlow[sink_29,sink_2] -4
WCcheckFlow[sink_2,sink_15] -5
WCcheckFlow[sink_29,innode_7] 2
WCcheckFlow[innode_4,sink_19] 0
WCcheckFlow[sink_19,innode_3] -5
WCcheckFlow[innode_4,innode_5] -2
WCcheckFlow[sink_27,innode_5] 3
WCcheckFlow[sink_27,sink_19] -4
WCcheckFlow[sink_10,sink_11] 3
WCcheckFlow[sink_10,innode_2] 1
WCcheckFlow[sink_10,innode_3] 6
WCcheckFlow[innode_6,sink_25] -14
WCcheckFlow[sink_11,innode_1] 2
WCcheckFlow[sink_19,innode_2] 0
WCcheckFlow[source_3,innode_4] -1
WCcheckFlow[source_2,innode_7] -1
WCcheckFlow[sink_3,innode_8] 37
